benchmarks_vrp/CMT12/tsp_classic/CMT12_4.vrp
NAME: CMT12_4
TYPE: CVRP
COMMENT: 819.56 - Cluster Nr.4
DIMENSION: 11
CAPACITY: 200
EDGE_WEIGHT_TYPE: EUC_2D
NODE_COORD_TYPE: TWOD_COORDS
NODE_COORD_SECTION: 
3 47 40
7 53 30
6 50 30
11 60 55
1 66 55
10 40 50
5 48 40
4 50 40
8 65 55
2 53 35
9 50 35
DEPOT_SECTION: 
10
-1
DEMAND_SECTION: 
4 50
11 10
9 20
8 20
1 10
7 10
6 10
3 10
5 10
2 50
10 0
EOF
