benchmarks_vrp/CMT12/tsp_classic/CMT12_4.tour
NAME: CMT12_4 solution
TYPE: TOUR
TOUR_SECTION:
10 3 5 4 9 6 7 2 8 1 11 -1
-1
EOF